Running for instance ./models/r102.txt
Optimize a model with 101 rows, 2000 columns and 9273 nonzeros
Variable types: 0 continuous, 2000 integer (0 binary)
Coefficient statistics:
  Matrix range     [1e+00, 1e+00]
  Objective range  [3e+01, 2e+02]
  Bounds range     [1e+00, 1e+00]
  RHS range        [1e+00, 2e+01]
Presolve removed 0 rows and 18 columns
Presolve time: 0.01s
Presolved: 101 rows, 1982 columns, 9197 nonzeros
Variable types: 0 continuous, 1982 integer (1982 binary)

Root relaxation: infeasible, 343 iterations, 0.01 seconds

    Nodes    |    Current Node    |     Objective Bounds      |     Work
 Expl Unexpl |  Obj  Depth IntInf | Incumbent    BestBd   Gap | It/Node Time

     0     0 infeasible    0               - infeasible      -     -    0s

Explored 0 nodes (343 simplex iterations) in 0.04 seconds
Thread count was 8 (of 8 available processors)

Solution count 0

Model is infeasible
Best objective -, best bound -, gap -
('Encountered an attribute error', AttributeError("Unable to retrieve attribute 'x'",))
Execution time:  0.0382806  minutes
